c Sudoku solution
p cnf 729 0
232 0
264 0
285 0
329 0
341 0
357 0
374 0
398 0
487 0
531 0
579 0
582 0
362 0
595 0
619 0
635 0
315 0
661 0
723 0
752 0
877 0
894 0
684 0
911 0
851 0
934 0
744 0
946 0
958 0
999 0
972 0
775 0
983 0
192 0
297 0
189 0
781 0
796 0
888 0
386 0
333 0
491 0
693 0
656 0
678 0
476 0
438 0
718 0
216 0
137 0
114 0
526 0
424 0
554 0
812 0
413 0
622 0
517 0
442 0
647 0
825 0
927 0
836 0
739 0
767 0
965 0
145 0
455 0
469 0
153 0
259 0
166 0
248 0
171 0
273 0
128 0
221 0
543 0
568 0
849 0
863 0
